&GLOBAL
	PROJECT system
	RUN_TYPE MD
	PRINT_LEVEL MEDIUM
&END

&MOTION

  &MD
    ENSEMBLE NPT_I
    STEPS 10
    TIMESTEP 2.0
    TEMPERATURE 300

    &BAROSTAT
      PRESSURE 1
      TIMECON  100
    &END BAROSTAT

    &THERMOSTAT
      &NOSE
        LENGTH 3
        YOSHIDA 3
        TIMECON 200.0
        MTS 2
      &END NOSE
    &END THERMOSTAT
  &END MD

&END


&FORCE_EVAL
	METHOD Quickstep
	STRESS_TENSOR ANALYTICAL
	&PRINT
		&FORCES ON
		&END
		&STRESS_TENSOR ON
                &END
	&END

	&DFT
		BASIS_SET_FILE_NAME  BASIS_MOLOPT
		POTENTIAL_FILE_NAME  GTH_POTENTIALS
#		MULTIPLICITY 2
		&QS
			EPS_DEFAULT 1.0E-12
		&END
		&MGRID
			NGRIDS 4
			CUTOFF 1000
			REL_CUTOFF 60
		&END
		&XC
			&XC_FUNCTIONAL PBE
			&END
		&END

		&SCF
			SCF_GUESS ATOMIC
			EPS_SCF 1.0E-6
			MAX_SCF 100
			ADDED_MOS 200
			&SMEAR ON
				METHOD FERMI_DIRAC
				#ELECTRONIC_TEMPERATURE [K] 300
			&END SMEAR
			&DIAGONALIZATION  ON
				ALGORITHM STANDARD
			&END 
			&MIXING  T
				METHOD BROYDEN_MIXING
				ALPHA 0.4
				NBROYDEN 8
			&END
		&END 
		&KPOINTS
				SCHEME  MONKHORST-PACK 2 2 2
		&END
	&END

	&SUBSYS
		&KIND Li
			ELEMENT   Li
			BASIS_SET DZVP-MOLOPT-SR-GTH
			POTENTIAL GTH-PBE
		&END
		&KIND P
			ELEMENT   P
			BASIS_SET DZVP-MOLOPT-SR-GTH
			POTENTIAL GTH-PBE
		&END
		&KIND S
			ELEMENT   S
			BASIS_SET DZVP-MOLOPT-SR-GTH
			POTENTIAL GTH-PBE
		&END
		&KIND Cl
			ELEMENT   Cl
			BASIS_SET DZVP-MOLOPT-SR-GTH
			POTENTIAL GTH-PBE
		&END
		&CELL
			A 9.8500000000 0.0000000000 0.0000000000 
			B 0.0000000000 9.8500000000 0.0000000000 
			C 0.0000000000 0.0000000000 9.8500000000 
		&END

		&COORD
		@include coord.xyz
		&END
	&END
&END
