#Generated by Multiwfn
&GLOBAL
  PROJECT cp2k
  PRINT_LEVEL medium
  RUN_TYPE MD
&END GLOBAL

&FORCE_EVAL
  METHOD Quickstep
  &PRINT
    &FORCES ON
    &END FORCES
  &END PRINT 
  &SUBSYS
    &CELL
      A    10.88160000     0.00000000     0.00000000
      B     0.00000000    11.75140000     0.00000000
      C    -1.15989082     0.00000000    13.07103802
      PERIODIC XYZ #Direction(s) of applied PBC (geometry aspect)
    &END CELL
    &COORD
      O           9.32016984    4.86613723    1.20697965
      N           9.23008568    4.86648977    2.52872302
      N           8.25029310    4.21734243    3.17756934
      N           8.45036185    4.42369702    4.45460976
      N           9.54422895    5.20351992    4.65394309
      C          10.01388987    5.47039421    3.43245459
      O           0.53435031    3.39662466    0.69825485
      N           0.28761838    4.13813800   12.99457245
      H          -0.07617959    4.92148632   12.69197792
      H          10.72437381    3.97549862    0.79079780
      H           0.56392712    3.64293400   12.34559541
      H           2.16756738    4.34919314    0.40520218
      O           1.27145745   10.74183723    2.06077985
      N           1.36154161   10.74218977    0.73903649
      N           2.34133419   10.09304243    0.09019016
      N           0.98137462   10.29939702   11.88418777
      N          -0.11249248   11.07921992   11.68485444
      C          -0.58215340   11.34609421   12.90634295
      O           4.61647698    9.27232466    2.56950465
      N           3.70331809   10.01383800    3.34422508
      H           4.06711606   10.79718632    3.64681961
      H           5.30805349    9.85119862    2.47696171
      H           3.42700935    9.51863400    3.99320212
      H           2.98325991   10.22489314    2.86255733
      O           0.98148475    6.88526277    5.32853936
      N           1.07156891    6.88491023    4.00679600
      N           2.05136149    7.53405757    3.35794967
      N           1.85129274    7.32770298    2.08090925
      N           0.75742564    6.54788008    1.88157592
      C           0.28776472    6.28100579    3.10306443
      O           4.32650428    8.35477534    5.83726416
      N           3.41334539    7.61326200    6.61198458
      H           3.77714335    6.82991368    6.91457911
      H           5.01808078    7.77590138    5.74472121
      H           3.13703665    8.10846600    7.26096162
      H           2.69328720    7.40220686    6.13031683
      O           8.45025172    1.00956277   11.01025817
      N           8.36016756    1.00921023   12.33200153
      N           7.38037498    1.65835757   12.98084786
      N           8.74033455    1.45200298    1.18685025
      N           9.83420166    0.67218008    1.38618358
      C          10.30386258    0.40530579    0.16469508
      O           0.24437761    2.47907534    3.96601436
      N           1.15753650    1.73756200    3.19129393
      H           0.79373853    0.95421368    2.88869940
      H          10.43440110    1.90020138    4.05855731
      H           1.43384523    2.23276600    2.54231690
      H           1.87759468    1.52650686    3.67296168
      O           3.87936984    4.86613723    1.20697965
      N           3.78928568    4.86648977    2.52872302
      N           2.80949310    4.21734243    3.17756934
      N           3.00956185    4.42369702    4.45460976
      N           4.10342895    5.20351992    4.65394309
      C           4.57308987    5.47039421    3.43245459
      O           5.97515031    3.39662466    0.69825485
      N           5.72841838    4.13813800   12.99457245
      H           5.36462041    4.92148632   12.69197792
      H           5.28357381    3.97549862    0.79079780
      H           6.00472712    3.64293400   12.34559541
      H           7.60836738    4.34919314    0.40520218
      O           6.71225745   10.74183723    2.06077985
      N           6.80234161   10.74218977    0.73903649
      N           7.78213419   10.09304243    0.09019016
      N           6.42217462   10.29939702   11.88418777
      N           5.32830752   11.07921992   11.68485444
      C           4.85864660   11.34609421   12.90634295
      O          10.05727698    9.27232466    2.56950465
      N           9.14411809   10.01383800    3.34422508
      H           9.50791606   10.79718632    3.64681961
      H          -0.13274651    9.85119862    2.47696171
      H           8.86780935    9.51863400    3.99320212
      H           8.42405991   10.22489314    2.86255733
      O           6.42228475    6.88526277    5.32853936
      N           6.51236891    6.88491023    4.00679600
      N           7.49216149    7.53405757    3.35794967
      N           7.29209274    7.32770298    2.08090925
      N           6.19822564    6.54788008    1.88157592
      C           5.72856472    6.28100579    3.10306443
      O           9.76730428    8.35477534    5.83726416
      N           8.85414539    7.61326200    6.61198458
      H           9.21794335    6.82991368    6.91457911
      H          -0.42271922    7.77590138    5.74472121
      H           8.57783665    8.10846600    7.26096162
      H           8.13408720    7.40220686    6.13031683
      O           3.00945172    1.00956277   11.01025817
      N           2.91936756    1.00921023   12.33200153
      N           1.93957498    1.65835757   12.98084786
      N           3.29953455    1.45200298    1.18685025
      N           4.39340166    0.67218008    1.38618358
      C           4.86306258    0.40530579    0.16469508
      O           5.68517761    2.47907534    3.96601436
      N           6.59833650    1.73756200    3.19129393
      H           6.23453853    0.95421368    2.88869940
      H           4.99360110    1.90020138    4.05855731
      H           6.87464523    2.23276600    2.54231690
      H           7.31839468    1.52650686    3.67296168
      O           8.74022443    4.86613723    7.74249866
      N           8.65014027    4.86648977    9.06424203
      N           7.67034769    4.21734243    9.71308836
      N           7.87041644    4.42369702   10.99012877
      N           8.96428354    5.20351992   11.18946210
      C           9.43394446    5.47039421    9.96797360
      O          -0.04559510    3.39662466    7.23377386
      N           0.86756379    4.13813800    6.45905344
      H           0.50376582    4.92148632    6.15645891
      H          10.14442839    3.97549862    7.32631681
      H           1.14387253    3.64293400    5.81007640
      H           1.58762197    4.34919314    6.94072119
      O           0.69151204   10.74183723    8.59629887
      N           0.78159620   10.74218977    7.27455550
      N           1.76138878   10.09304243    6.62570917
      N           1.56132004   10.29939702    5.34866876
      N           0.46745293   11.07921992    5.14933543
      C          -0.00220799   11.34609421    6.37082393
      O           4.03653157    9.27232466    9.10502367
      N           3.12337268   10.01383800    9.87974409
      H           3.48717065   10.79718632   10.18233862
      H           4.72810808    9.85119862    9.01248072
      H           2.84706394    9.51863400   10.52872113
      H           2.40331450   10.22489314    9.39807634
      O           0.40155093    6.88526277   11.86392766
      N           0.49162350    6.88491023   10.54231501
      N           1.47141608    7.53405757    9.89346868
      N           1.27134733    7.32770298    8.61642827
      N           0.17748022    6.54788008    8.41709494
      C          -0.29218069    6.28100579    9.63858344
      O           3.74655886    8.35477534   12.37278317
      N           3.99329080    7.61326200    0.07646557
      H           4.35708877    6.82991368    0.37906010
      H           4.43813537    7.77590138   12.28024022
      H           3.71698206    8.10846600    0.72544261
      H           2.11334179    7.40220686   12.66583585
      O           9.03019714    1.00956277    4.47473916
      N           8.94011298    1.00921023    5.79648252
      N           7.96032040    1.65835757    6.44532885
      N           8.16038914    1.45200298    7.72236926
      N           9.25425625    0.67218008    7.92170259
      C           9.72391716    0.40530579    6.70021409
      O          -0.33556781    2.47907534   10.50153337
      N           0.57759108    1.73756200    9.72681295
      H           0.21379312    0.95421368    9.42421842
      H           9.85445569    1.90020138   10.59407632
      H           0.85389982    2.23276600    9.07783591
      H           1.29764927    1.52650686   10.20848070
      O           3.29942443    4.86613723    7.74249866
      N           3.20934027    4.86648977    9.06424203
      N           2.22954769    4.21734243    9.71308836
      N           2.42961644    4.42369702   10.99012877
      N           3.52348354    5.20351992   11.18946210
      C           3.99314446    5.47039421    9.96797360
      O           5.39520490    3.39662466    7.23377386
      N           6.30836379    4.13813800    6.45905344
      H           5.94456582    4.92148632    6.15645891
      H           4.70362839    3.97549862    7.32631681
      H           6.58467253    3.64293400    5.81007640
      H           7.02842197    4.34919314    6.94072119
      O           6.13231204   10.74183723    8.59629887
      N           6.22239620   10.74218977    7.27455550
      N           7.20218878   10.09304243    6.62570917
      N           7.00212004   10.29939702    5.34866876
      N           5.90825293   11.07921992    5.14933543
      C           5.43859201   11.34609421    6.37082393
      O           9.47733157    9.27232466    9.10502367
      N           8.56417268   10.01383800    9.87974409
      H           8.92797065   10.79718632   10.18233862
      H          -0.71269192    9.85119862    9.01248072
      H           8.28786394    9.51863400   10.52872113
      H           7.84411450   10.22489314    9.39807634
      O           5.84235093    6.88526277   11.86392766
      N           5.93242350    6.88491023   10.54231501
      N           6.91221608    7.53405757    9.89346868
      N           6.71214733    7.32770298    8.61642827
      N           5.61828022    6.54788008    8.41709494
      C           5.14861931    6.28100579    9.63858344
      O           9.18735886    8.35477534   12.37278317
      N           9.43409080    7.61326200    0.07646557
      H           9.79788877    6.82991368    0.37906010
      H          -1.00266463    7.77590138   12.28024022
      H           9.15778206    8.10846600    0.72544261
      H           7.55414179    7.40220686   12.66583585
      O           3.58939714    1.00956277    4.47473916
      N           3.49931298    1.00921023    5.79648252
      N           2.51952040    1.65835757    6.44532885
      N           2.71958914    1.45200298    7.72236926
      N           3.81345625    0.67218008    7.92170259
      C           4.28311716    0.40530579    6.70021409
      O           5.10523219    2.47907534   10.50153337
      N           6.01839108    1.73756200    9.72681295
      H           5.65459312    0.95421368    9.42421842
      H           4.41365569    1.90020138   10.59407632
      H           6.29469982    2.23276600    9.07783591
      H           6.73844927    1.52650686   10.20848070
    &END COORD
#   &VELOCITY #You can set initial atomic velocities in this section
#   &END VELOCITY
    &KIND O
      ELEMENT O
      BASIS_SET DZVP-MOLOPT-SR-GTH-q6
      POTENTIAL GTH-PBE
    &END KIND
    &KIND N
      ELEMENT N
      BASIS_SET DZVP-MOLOPT-SR-GTH-q5
      POTENTIAL GTH-PBE
    &END KIND
    &KIND C
      ELEMENT C
      BASIS_SET DZVP-MOLOPT-SR-GTH-q4
      POTENTIAL GTH-PBE
    &END KIND
    &KIND H
      ELEMENT H
      BASIS_SET DZVP-MOLOPT-SR-GTH-q1
      POTENTIAL GTH-PBE
    &END KIND
  &END SUBSYS

  &DFT
    BASIS_SET_FILE_NAME  BASIS_MOLOPT
    POTENTIAL_FILE_NAME  POTENTIAL
#   WFN_RESTART_FILE_NAME TKX-50(298K)-212-RESTART.wfn
    CHARGE    0 #Net charge
    MULTIPLICITY    1 #Spin multiplicity
    &QS
      EPS_DEFAULT 1.0E-10 #Set all EPS_xxx to values such that the energy will be correct up to this value
      EXTRAPOLATION ASPC #Extrapolation for wavefunction during e.g. MD. ASPC is default, PS can also be used
      EXTRAPOLATION_ORDER 3 #Order for PS or ASPC extrapolation. 3 is default
    &END QS
    &POISSON
      PERIODIC XYZ #Direction(s) of PBC for calculating electrostatics
      PSOLVER PERIODIC #The way to solve Poisson equation
    &END POISSON
    &XC
      &XC_FUNCTIONAL PBE
      &END XC_FUNCTIONAL
	  &VDW_POTENTIAL
        POTENTIAL_TYPE PAIR_POTENTIAL
        &PAIR_POTENTIAL
          PARAMETER_FILE_NAME dftd3.dat
          TYPE DFTD3(BJ)
          REFERENCE_FUNCTIONAL PBE
        &END PAIR_POTENTIAL
      &END VDW_POTENTIAL
    &END XC
    &MGRID
      CUTOFF  300
      REL_CUTOFF  40
    &END MGRID
    &SCF
      MAX_SCF 200 #Maximum number of steps of inner SCF
      EPS_SCF 1.0E-05 #Convergence threshold of density matrix of inner SCF
#     SCF_GUESS RESTART #Use wavefunction from WFN_RESTART_FILE_NAME file as initial guess
      &OT
        PRECONDITIONER FULL_ALL #Usually best but expensive for large system. Cheaper: FULL_SINGLE_INVERSE and FULL_KINETIC
        MINIMIZER DIIS #CG is worth to consider in difficult cases
        LINESEARCH 2PNT #1D line search algorithm for CG. 2PNT is default, 3PNT is better but more costly. GOLD is best but very expensive
        ALGORITHM STRICT #Algorithm of OT. Can be STRICT (default) or IRAC
      &END OT
      &PRINT
        &RESTART OFF #Do not generate wfn file to suppress meaningless I/O cost
        &END RESTART
      &END PRINT
    &END SCF
  &END DFT
  STRESS_TENSOR ANALYTICAL #Compute full stress tensor analytically
&END FORCE_EVAL

&MOTION
  &MD
    ENSEMBLE NPT_F
    STEPS 10 #Number of steps to run
    TIMESTEP 0.5 #Step size in fs. Decrease it properly for high temperature simulation
    TEMPERATURE 298.15 #Initial and maintained temperature (K)
#   COMVEL_TOL 0 #Uncomment this can remove translation motion of center-of-mass every step
    &THERMOSTAT
      TYPE NOSE
    &END THERMOSTAT
    &BAROSTAT
      PRESSURE 300000 #Initial and maintained pressure (bar)
      TIMECON 1000 #Barostat time constant (fs)
    &END BAROSTAT
    &PRINT
      &PROGRAM_RUN_INFO
        &EACH
          MD     1 #Output frequency of MD information, 0 means never
        &END EACH
      &END PROGRAM_RUN_INFO
    &END PRINT
  &END MD
  &PRINT
    &FORCES
      &EACH
        MD 1
      &END EACH
    &END FORCES  
    &CELL
      &EACH
        MD 1
      &END EACH
    &END CELL 
    &TRAJECTORY
      &EACH
        MD     1 #Output frequency of coordinate
      &END EACH
      FORMAT xyz
    &END TRAJECTORY
    &RESTART
      BACKUP_COPIES 0 #Maximum number of backing up restart file, 0 means never
      &EACH
        MD 1 #Frequency of updating last restart file
      &END EACH
    &END RESTART
    &RESTART_HISTORY OFF 
    &END RESTART_HISTORY
  &END PRINT
&END MOTION
