#Generated by Multiwfn
&GLOBAL
  PROJECT Li-LiFSI-DME-1-1
  PRINT_LEVEL MEDIUM
  RUN_TYPE MD
&END GLOBAL

&FORCE_EVAL
  METHOD Quickstep
  &SUBSYS
    &CELL
      A    21.81890000     0.00000000     0.00000000
      B     0.00000000    21.81890000     0.00000000
      C     0.00000000     0.00000000    43.41560000
      PERIODIC XYZ #Direction(s) of applied PBC (geometry aspect)
    &END CELL
    &COORD
      Li          1.81816894    1.81816894    1.81998195
      Li          5.45472500    1.81816894    1.81998195
      Li          9.09128106    1.81816894    1.81998195
      Li         12.72761894    1.81816894    1.81998195
      Li         16.36417500    1.81816894    1.81998195
      Li         20.00073106    1.81816894    1.81998195
      Li          1.81816894    5.45472500    1.81998195
      Li          5.45472500    5.45472500    1.81998195
      Li          9.09128106    5.45472500    1.81998195
      Li         12.72761894    5.45472500    1.81998195
      Li         16.36417500    5.45472500    1.81998195
      Li         20.00073106    5.45472500    1.81998195
      Li          1.81816894    9.09128106    1.81998195
      Li          5.45472500    9.09128106    1.81998195
      Li          9.09128106    9.09128106    1.81998195
      Li         12.72761894    9.09128106    1.81998195
      Li         16.36417500    9.09128106    1.81998195
      Li         20.00073106    9.09128106    1.81998195
      Li          1.81816894   12.72761894    1.81998195
      Li          5.45472500   12.72761894    1.81998195
      Li          9.09128106   12.72761894    1.81998195
      Li         12.72761894   12.72761894    1.81998195
      Li         16.36417500   12.72761894    1.81998195
      Li         20.00073106   12.72761894    1.81998195
      Li          1.81816894   16.36417500    1.81998195
      Li          5.45472500   16.36417500    1.81998195
      Li          9.09128106   16.36417500    1.81998195
      Li         12.72761894   16.36417500    1.81998195
      Li         16.36417500   16.36417500    1.81998195
      Li         20.00073106   16.36417500    1.81998195
      Li          1.81816894   20.00073106    1.81998195
      Li          5.45472500   20.00073106    1.81998195
      Li          9.09128106   20.00073106    1.81998195
      Li         12.72761894   20.00073106    1.81998195
      Li         16.36417500   20.00073106    1.81998195
      Li         20.00073106   20.00073106    1.81998195
      Li          0.00000000   10.90945000    3.44763280
      Li         10.90945000    3.63655606    3.44763280
      Li          3.63655606   10.90945000    3.44763280
      Li          7.27289394    0.00000000    3.44763280
      Li          7.27289394   10.90945000    3.44763280
      Li         14.54600606    3.63655606    3.44763280
      Li         10.90945000   10.90945000    3.44763280
      Li         18.18234394    0.00000000    3.44763280
      Li         14.54600606   10.90945000    3.44763280
      Li         18.18234394    3.63655606    3.44763280
      Li         18.18234394   10.90945000    3.44763280
      Li          3.63655606    0.00000000    3.44763280
      Li          0.00000000   14.54600606    3.44763280
      Li          0.00000000    7.27289394    3.44763280
      Li          3.63655606   14.54600606    3.44763280
      Li          0.00000000    3.63655606    3.44763280
      Li          7.27289394   14.54600606    3.44763280
      Li          3.63655606    7.27289394    3.44763280
      Li         10.90945000   14.54600606    3.44763280
      Li         10.90945000    0.00000000    3.44763280
      Li         14.54600606   14.54600606    3.44763280
      Li          7.27289394    7.27289394    3.44763280
      Li         18.18234394   14.54600606    3.44763280
      Li          3.63655606    3.63655606    3.44763280
      Li          0.00000000   18.18234394    3.44763280
      Li         10.90945000    7.27289394    3.44763280
      Li          3.63655606   18.18234394    3.44763280
      Li          0.00000000    0.00000000    3.44763280
      Li          7.27289394   18.18234394    3.44763280
      Li         14.54600606    7.27289394    3.44763280
      Li         10.90945000   18.18234394    3.44763280
      Li          7.27289394    3.63655606    3.44763280
      Li         14.54600606   18.18234394    3.44763280
      Li         18.18234394    7.27289394    3.44763280
      Li         18.18234394   18.18234394    3.44763280
      Li         14.54600606    0.00000000    3.44763280
      Li         16.36439319    5.45516138    4.87687435
      Li          5.45385224    1.81795075    4.87687435
      Li          1.81685980   16.36352043    4.87557188
      Li         16.36482957    9.09149925    4.87644019
      Li          5.45363406    5.45516138    4.87730850
      Li          5.45472500   16.36461138    4.87644019
      Li         20.00204020    5.45494319    4.87644019
      Li         20.00116744    9.09106287    4.87600604
      Li          9.09259020   16.36417500    4.87687435
      Li         12.72718256    1.81816894    4.87557188
      Li         20.00313114    1.81751437    4.87774266
      Li         12.72805532   16.36308405    4.87600604
      Li          1.81773256   12.72696437    4.87513772
      Li          1.81882350    9.09062650    4.87644019
      Li         16.36330224   16.36439319    4.87730850
      Li          9.09019012    5.45559776    4.87644019
      Li          5.45494319   12.72609161    4.87774266
      Li         19.99964012   16.36526594    4.87644019
      Li          9.09149925    1.81773256    4.87513772
      Li          5.45472500    9.09040831    4.87817682
      Li          1.81707799   20.00291295    4.87687435
      Li          9.09346295   12.72696437    4.87730850
      Li          1.81795075    1.81925988    4.87687435
      Li          5.45537957   20.00073106    4.87600604
      Li         12.72652799    5.45407043    4.87557188
      Li         12.72805532   12.72827350    4.87644019
      Li          9.09149925   20.00094925    4.87557188
      Li          9.08997193    9.09149925    4.87817682
      Li          1.81860532    5.45428862    4.87600604
      Li         12.72870988   20.00094925    4.87600604
      Li         16.36286587   12.72761894    4.87644019
      Li         16.36417500    1.81685980    4.87774266
      Li         16.36417500   19.99985831    4.87817682
      Li         12.72696437    9.09280839    4.87687435
      Li         20.00138563   12.72761894    4.87513772
      Li         19.99920374   20.00138563    4.87817682
      Li          7.27289394   10.90923181    6.42637711
      Li         10.91097732   14.54644244    6.42377218
      Li         10.90792268    7.27354850    6.42290386
      Li          0.00043638    3.63742882    6.42420633
      Li          3.63633787   21.81868181    6.42246971
      Li         14.54644244   14.54600606    6.42333802
      Li         10.90901362   10.90988638    6.42420633
      Li         21.81824543    0.00087276    6.42550880
      Li         14.54600606    7.27289394    6.42073308
      Li         18.18190756   14.54600606    6.42246971
      Li          0.00065457    7.27376669    6.42290386
      Li         14.54600606   10.90966819    6.42246971
      Li         10.90814087    3.63633787    6.42160140
      Li         21.81780905   18.18256213    6.42160140
      Li         18.18168937   21.81846362    6.42594296
      Li         18.18278031    7.27202118    6.42160140
      Li         18.18343488   10.91032276    6.42160140
      Li          3.63524693   18.18256213    6.41986477
      Li          3.63764701    3.63721063    6.42333802
      Li          3.63677425    7.27223937    6.42464049
      Li          7.27289394    0.00021819    6.42160140
      Li          7.27354850   18.18212575    6.42160140
      Li         21.81802724   14.54666063    6.42116724
      Li          0.00000000   10.90988638    6.42333802
      Li         14.54709701    3.63611969    6.42073308
      Li         10.91119551   18.18256213    6.42290386
      Li         14.54622425   21.81868181    6.42464049
      Li          3.63633787   14.54535150    6.42073308
      Li          7.27093024    7.27223937    6.42420633
      Li         14.54556969   18.18212575    6.42377218
      Li          3.63721063   10.90857724    6.42377218
      Li         10.91097732    0.00109095    6.42290386
      Li          7.27420307   14.54469693    6.42246971
      Li         18.18038024   18.18168937    6.42507464
      Li          7.27202118    3.63590150    6.42290386
      Li         18.18321669    3.63546512    6.42246971
      Li         16.36395681   16.36373862    7.85344788
      Li          5.45516138    5.45428862    7.85344788
      Li          1.81816894   12.72914626    7.85040879
      Li         12.72827350    5.45494319    7.84867217
      Li         20.00138563   12.72783713    7.84867217
      Li         20.00182201   16.36482957    7.84997464
      Li          9.09215382    1.81751437    7.84910632
      Li          1.81947807    1.81795075    7.85214542
      Li         12.72827350    9.09019012    7.85127710
      Li          5.45297949   12.72914626    7.85344788
      Li          1.81860532   19.99942193    7.85084295
      Li          1.81838713   16.36461138    7.84867217
      Li          1.81795075    9.09193563    7.85301373
      Li          1.81860532    5.45472500    7.85214542
      Li         12.72783713    1.82056902    7.85084295
      Li          5.45363406   19.99833098    7.84997464
      Li         16.36264768    5.45559776    7.85040879
      Li          5.45341587   16.36482957    7.84910632
      Li          9.09237201   12.72827350    7.85344788
      Li         16.36395681    9.08909917    7.84997464
      Li          9.09128106   20.00007650    7.84910632
      Li          9.09215382    5.45537957    7.84954048
      Li          5.45407043    9.09084469    7.85605282
      Li          9.09106287   16.36482957    7.84954048
      Li         20.00138563    1.81882350    7.85431620
      Li         12.72761894   20.00116744    7.85301373
      Li         12.72870988   12.72630980    7.85214542
      Li         16.36264768    1.81991445    7.85388204
      Li         20.00007650    9.09084469    7.84954048
      Li         12.72849169   16.36395681    7.85257957
      Li         16.36286587   20.00029469    7.85692113
      Li          5.45385224    1.81576886    7.84997464
      Li         20.00029469    5.45559776    7.85040879
      Li         16.36417500   12.72630980    7.85040879
      Li          9.09106287    9.09040831    7.85475035
      Li         20.00094925   19.99920374    7.85431620
      Li         18.18278031    7.27376669    9.41988273
      Li          7.27573039    3.63328323    9.41858026
      Li          0.00327284   18.17754378    9.41988273
      Li          3.63350142   14.55102441    9.42118520
      Li         10.90639535    0.00087276    9.41814611
      Li         10.91119551   10.90857724    9.42031689
      Li         21.81584535    7.27333032    9.41814611
      Li         14.54382417    3.64004709    9.42161936
      Li          3.63808339   18.17994386    9.42031689
      Li          7.27485764   21.81868181    9.41684364
      Li          7.27180299   14.55080622    9.41988273
      Li         21.81606354   10.91119551    9.41814611
      Li         10.91250465    7.26765740    9.41988273
      Li         14.54775157   10.90835906    9.41988273
      Li          7.27267575   18.18321669    9.41988273
      Li          3.63764701    3.63437417    9.41944858
      Li         14.54120590    0.00349102    9.42118520
      Li         10.90966819   14.54666063    9.41901442
      Li         21.81868181    3.63830158    9.41988273
      Li          3.63328323    7.27158480    9.42118520
      Li         10.90595898   18.18343488    9.41858026
      Li          3.63219228   10.91272283    9.42075104
      Li         18.18430764   10.90945000    9.41684364
      Li         10.90814087    3.63546512    9.41814611
      Li         14.54709701   14.54382417    9.41944858
      Li         14.54731520    7.27202118    9.42118520
      Li         14.54273323   18.18059842    9.42118520
      Li         18.18125299    3.64266536    9.42075104
      Li         18.18278031    0.00283646    9.42248767
      Li          3.63808339   21.81693630    9.41944858
      Li         21.81868181   14.54447874    9.41814611
      Li         18.18518039   14.54316961    9.41858026
      Li         18.18496220   18.17819835    9.42161936
      Li          7.27398488   10.91185008    9.42205351
      Li          0.00240008   21.81759087    9.42031689
      Li          7.27551221    7.26918472    9.42161936
      C           8.27023586    8.22201609   23.51258649
      O           9.32212503    8.68523133   22.65339177
      C           9.94941840    7.81683911   21.71908806
      C          10.82762913    8.69504984   20.81734604
      O          11.79267907    9.09062650   21.69781441
      C          12.99904605    9.16786540   20.98883766
      H           7.45966372    7.88425952   22.86829899
      H           7.80702061    8.92654837   24.23198298
      H           8.64661188    7.48868286   24.25325663
      H           9.18706603    7.44046309   21.02139936
      H          10.66355100    7.17994542   22.23443123
      H          10.32579443    9.46700252   20.24816753
      H          11.23302429    7.99051756   20.05496811
      H          12.96042660    9.99763817   20.24816753
      H          13.08588528    8.40551304   20.17305854
      H          13.83863733    9.38016330   21.65483297
      C          21.06658433   19.92785594   38.04074872
      O          19.86043554   19.24274248   37.80456786
      C          19.75417749   18.29711135   36.63408328
      C          20.21739274   16.90746561   36.85941024
      O          21.66507676   16.99430483   36.84899050
      C           0.38641272   15.79753817   36.98835458
      H           0.02945552   19.31038107   38.42714756
      H          20.88330557   20.64198853   38.88908954
      H          21.40434090   20.58416845   37.20326180
      H          20.17877329   18.75050809   35.67850592
      H          18.74090778   18.16183417   36.30108563
      H          19.79279695   16.35719295   35.96852213
      H          19.89905499   16.52127108   37.89053074
      H           0.15491419   15.13162534   36.10788621
      H           0.16451451   15.33432292   38.01904092
      H           1.43830189   15.86517676   36.99920848
      C          17.11976351    3.28112618   27.58193068
      O          17.11976351    3.31974564   29.07455901
      C          18.27769253    3.87940042   29.65459142
      C          17.99775604    4.04347855   31.26531018
      O          18.29711135    2.81791094   31.98470668
      C          17.63119852    2.80831062   33.38051822
      H          16.26075341    2.84693007   27.08829531
      H          17.94953627    2.78889180   27.12042285
      H          17.23540368    4.24617613   27.13127675
      H          18.22947276    4.75761115   28.98859612
      H          19.12688412    3.30032681   29.35372132
      H          17.03292428    4.45847403   31.41552816
      H          18.73130746    4.73841051   31.60872758
      H          17.63119852    1.91068107   34.00309792
      H          16.62752912    3.08802892   33.13348345
      H          17.94953627    3.60928244   34.07864106
      C           3.40658486   18.19085331   36.94537313
      O           2.87573102   19.14630294   35.94681433
      C           2.37389632   18.76032660   34.55100279
      C           1.64056309   19.91825562   33.83160630
      O           1.79504090   21.11480410   34.59398424
      C           1.35102629    0.36721209   33.65968052
      H           3.67670284   18.56722933   38.00862118
      H           4.34261567   18.00757455   36.43002996
      H           2.73107171   17.39948181   37.13857255
      H           1.72740231   17.92073533   34.60440398
      H           3.10744774   18.39355089   33.82075240
      H           0.59827424   19.73497686   33.76691706
      H           2.11337865   19.99549453   32.79006606
      H           0.69493197    1.11036382   34.08906081
      H           0.73333323   21.72289684   32.86517504
      H           2.13279748    0.84962797   33.07964811
      C           3.44520431   13.72277897   37.22453544
      O           3.54164385   12.85416856   38.45970926
      C           3.87940042   11.53216141   38.08373016
      C           3.88900074   10.64435037   39.46868780
      O           4.91208896   11.07854648   40.15595675
      C           5.20162576   10.11349653   41.19749700
      H           3.46440494   13.23054458   36.17214130
      H           4.04347855   14.60098969   37.20326180
      H           2.50917350   14.21501335   37.25666298
      H           4.88306982   11.65762008   37.75073251
      H           3.09784742   11.15578538   37.39646122
      H           4.01445941    9.63108065   39.15739795
      H           2.94336961   10.59613060   39.98446513
      H           5.33668475    9.11964563   40.80024426
      H           4.50669380    9.97843754   42.06754562
      H           6.18587634   10.32579443   41.57347609
      C          17.02310578   13.59732029   21.37567066
      O          17.44770157   12.27531314   21.06438081
      C          16.94586687   11.81209789   19.72197046
      C          17.59257907   10.61533123   19.18491948
      O          17.57316025    9.67930042   20.32327652
      C          17.00390515    8.53097171   19.84006089
      H          15.97121661   13.68415951   21.34354312
      H          17.43810126   14.37909148   20.74223706
      H          17.40908212   13.74197960   22.46019235
      H          17.21620305   12.56463175   18.95959252
      H          15.89397771   11.88911861   19.73282436
      H          18.59624847   10.85664826   18.92746498
      H          17.16798328   10.29699348   18.16508704
      H          17.03292428    8.35707508   18.68043021
      H          16.01943638    8.42471367   20.23731363
      H          17.62159821    7.74920052   20.25902143
      C          13.58771998   11.14618507   30.58846098
      O          14.93874626   11.31026319   30.47037055
      C          15.63346004   11.67682071   31.83405454
      C          16.99430483   12.08221588   31.30829163
      O          16.86884616   13.37542208   30.78209456
      C          17.14856446   14.34047203   31.79150726
      H          13.12450473   11.89893712   31.24360238
      H          13.30778349   10.23895520   31.11465805
      H          13.11468622   11.39710242   29.56862854
      H          15.60465909   10.82762913   32.54303129
      H          15.22828307   12.56463175   32.27472288
      H          17.38028117   11.52256109   30.40611546
      H          17.69861892   11.93755657   32.16705220
      H          17.09074437   15.34392324   31.40467426
      H          18.18125299   14.33065352   32.04896176
      H          16.49247013   14.37909148   32.71495707
      C           1.82384185   15.70109863   16.84438449
      O           1.42826519   16.98448633   17.23078333
      C           0.41499548   17.48632103   16.40415030
      C          21.55838233   18.55762902   17.29503842
      O           0.52103533   19.76377781   17.33801986
      C          21.63562124   20.86410494   17.83208939
      H           2.13279748   15.65287886   15.71688136
      H           0.91683018   15.17024479   16.87651203
      H           2.53797445   15.31512229   17.59590852
      H          21.58718328   16.67574889   16.15711554
      H           0.88781104   17.81447728   15.41601125
      H          21.32666562   18.28729285   18.40126790
      H          20.65115247   18.76032660   16.74756770
      H           0.55965479   21.60703848   17.86421693
      H          21.20120694   20.64198853   18.87362963
      H          20.87326887   21.27888222   17.14482044
      C          11.14618507   19.02084426   21.70866831
      O          10.96268812   19.67693859   22.97553552
      C          10.35481356   19.07866435   24.23198298
      C           8.89752923   19.19452271   24.04920331
      O           8.47293344   20.51652986   24.29623807
      C           7.17012692   20.91232470   23.93111288
      H          10.18113512   18.63486792   21.46163355
      H          11.84089884   18.24867339   21.92314138
      H          11.39710242   19.58049905   20.75265680
      H          10.60573091   19.55147991   25.25181543
      H          10.59613060   18.06539463   24.38220096
      H           8.54057203   18.55762902   24.89754413
      H           8.54057203   18.88578527   22.99724332
      H           6.55265205   20.30423196   24.59710818
      H           6.91920957   20.64198853   22.82531754
      H           6.91920957    0.08727560   24.23198298
      C          13.64554006    3.10744774   32.88644869
      O          12.73852839    3.55124416   31.82363480
      C          12.78674816    2.95296993   30.37398792
      C          11.58038118    3.60928244   29.55777464
      O          10.35481356    3.48382376   30.41696936
      C           9.92061745    2.18101724   30.50293225
      H          14.05093522    3.90841956   33.50946255
      H          14.46593070    2.67303344   32.31727017
      H          13.27876435    2.24843765   33.44477330
      H          12.66128948    1.91068107   30.51335199
      H          13.71317865    3.19428696   29.87991839
      H          11.36808328    3.40658486   28.41941760
      H          11.74445930    4.65135310   29.64373752
      H           9.87217949    1.75642145   29.42883030
      H           8.95556751    2.17141693   30.98614788
      H          10.59613060    1.71780200   31.25445628
      C           6.38857392   17.11976351   26.57251798
      O           6.28231588   15.79753817   27.14169650
      C           5.05674826   15.58524027   27.77556426
      C           5.12438685   14.23421398   28.33388887
      O           5.66484101   14.25363280   29.66501117
      C           5.74186172   13.15330568   30.54591369
      H           5.64542219   17.29344195   25.75673886
      H           7.35362387   17.39948180   26.18611914
      H           6.40777455   17.87229737   27.39958516
      H           4.22675731   15.78793785   27.07744141
      H           4.98910967   16.22213396   28.70943381
      H           5.80950031   13.65514038   27.71087501
      H           4.15933691   13.81921850   28.20494454
      H           6.53323323   12.52601230   30.19120824
      H           4.81543123   12.64187066   30.55633344
      H           6.10863743   13.50088075   31.57660004
      C           5.70324227    9.25470462   31.08253051
      O           4.68997256    8.66603070   31.97385278
      C           4.38123512    7.27638496   31.73767191
      C           5.44272461    6.47541314   32.47834205
      O           6.71673018    6.47541314   31.61958148
      C           7.73960021    5.97357844   32.41408696
      H           6.52363291    8.77207056   31.57660004
      H           5.62622155   10.30659379   31.08253051
      H           5.55858296    8.91694805   29.97673518
      H           4.34261567    7.09288801   30.57804124
      H           3.49342408    7.13150746   32.37110552
      H           5.24002702    5.43312429   32.51090375
      H           5.74186172    6.75513144   33.56286374
      H           7.48868286    4.96990904   32.66112172
      H           8.01931851    6.36915510   33.45562720
      H           8.63701157    5.95415962   31.79150726
      C          17.88211587    9.16786540   35.87170534
      O          17.65999947   10.33539474   36.62322938
      C          17.09074437   10.23895520   37.95478583
      C          16.96528570   11.67682071   38.70630987
      O          18.35493144   12.12083533   38.70630987
      C          18.61544910   13.28858286   39.43656026
      H          16.99430483    8.59839211   35.86085144
      H          18.60584879    8.61781093   36.48386530
      H          18.25849190    9.38016330   34.79803756
      H          17.74683869    9.74672082   38.69589012
      H          16.13529474    9.77573996   37.84754930
      H          16.57930935   11.66722040   39.80168546
      H          16.34759264   12.28491346   38.04074872
      H          19.65773796   13.37542208   39.53337705
      H          18.29711135   13.27876435   40.55320949
      H          18.21005394   14.14737476   38.92121709
      C          16.83022670    7.25696614   40.08041361
      O          17.16798328    5.94455931   40.04828606
      C          16.35719295    4.96990904   39.35016322
      C          16.32839200    5.10496803   37.76115226
      O          15.41156183    6.00259758   37.04175576
      C          14.23421398    6.19547666   37.76115226
      H          17.37068086    7.84564006   40.85364544
      H          15.82655730    7.28598528   40.47766635
      H          16.90746561    7.68156193   39.00674582
      H          15.50800136    4.66117161   39.95146928
      H          16.92666624    4.09169832   39.53294289
      H          15.90379621    4.15933691   37.54624504
      H          17.27402313    5.36548570   37.31006417
      H          14.33065352    6.59127150   38.84567394
      H          13.65514038    5.30766561   37.83626124
      H          13.72277897    6.96742934   37.20282764
      C          15.73971808   14.43691156   36.31193953
      O          15.52742019   15.69149831   35.68892567
      C          16.00983606   16.69516771   36.65535692
      C          15.68167981   18.00757455   36.08661256
      O          14.40789243   18.29711135   36.54812039
      C          14.14737476   18.77952723   37.95478583
      H          15.75891871   13.77099874   35.39934362
      H          15.05460462   14.24381430   37.18155400
      H          16.67574889   14.58157087   36.84899050
      H          17.05212492   16.65654826   36.79515516
      H          15.59484059   16.51167076   37.71860497
      H          15.88437739   17.98815573   34.93740163
      H          16.39581241   18.72170715   36.47301140
      H          13.13410504   19.08826467   38.08373016
      H          14.80368727   19.59009937   38.07287626
      H          14.40789243   18.15223386   38.86738174
      C           3.09784742    9.46700252   35.24869148
      O           2.89514984    8.66603070   36.43002996
      C           3.79256120    7.58512240   36.30108563
      C           3.71532229    6.52363291   37.40731512
      O           2.68285194    5.69364196   36.94537313
      C           2.68285194    4.44887371   37.67562352
      H           4.04347855    9.93981808   35.23827174
      H           2.42233428   10.27757466   35.24869148
      H           3.03980915    8.85890978   34.28269438
      H           4.75761115    8.01931851   36.44088386
      H           3.88900074    7.11230683   35.24869148
      H           3.57066299    6.81316971   38.53481825
      H           4.61295184    5.96397813   37.36433367
      H           2.34509537    4.54531325   38.79227276
      H           3.67670284    4.09169832   37.62178818
      H           2.01693912    3.73474111   37.23538934
      C          19.97607571    3.23290641   40.31659447
      O          19.96647539    4.28479558   39.33930932
      C          21.08600315    4.39083544   38.57693138
      C          20.83508580    3.85038128   36.97706652
      O          20.72882776    2.51877382   37.10601085
      C          20.32365078    1.73700263   36.08574425
      H          19.04004490    3.32934595   40.86406519
      H          20.89290588    3.28112618   40.89662689
      H          19.85061703    2.32567655   39.73656206
      H           0.10669442    3.88900074   39.03887336
      H          21.36572145    5.40410515   38.38373196
      H          21.70347802    4.13031777   36.38661436
      H          19.93767444    4.18813786   36.45086945
      H          20.67100767    2.19061756   35.09803935
      H          19.31038107    2.00733880   36.25767003
      H          20.58416845    0.74315173   36.38661436
      C           8.49235226   13.24014490   38.54523799
      O           8.10637592   12.47779253   37.32135223
      C           8.62741125   11.13636656   37.22453544
      C           8.35707508   10.54791083   35.75361491
      O           9.08102618   11.30044469   34.75505611
      C          10.30659379   10.75039022   34.42205846
      H           8.02913701   12.87358738   39.52252315
      H           8.15459569   14.23421398   38.47012900
      H           9.53442292   13.13410504   38.69589012
      H           8.15459569   10.60573091   38.09458406
      H           9.67930042   11.17498601   37.36433367
      H           7.31500441   10.53809232   35.53870769
      H           8.56959116    9.50562197   35.84999754
      H          10.18113512    9.71791987   34.23971294
      H          10.95308780   10.87584889   35.34550827
      H          10.62493154   11.29084437   33.46648110
      C           1.63096278   16.92666624   25.69204961
      O           0.55965479   17.45752008   24.80116150
      C          21.10476740   16.84942734   24.75818006
      C          20.49689285   17.22580336   23.30853317
      O          20.26517613   18.62504942   23.15788104
      C          19.64748307   18.92418654   21.82675874
      H           1.92049958   15.92299684   25.46672265
      H           1.31240684   16.88804679   26.80913300
      H           2.50917350   17.50573985   25.59566698
      H          20.51609348   17.01350546   25.71375741
      H          21.35568475   15.82655730   24.81158124
      H          19.55104353   16.77218843   23.19044274
      H          20.85385005   16.56970904   22.47104625
      H          20.10109800   18.51900956   20.87074723
      H          19.48362313   19.93767444   21.52588864